     200         2
     199         4
     198         1
     197         1
     196         2
     195         2
     194         2
     193         1
     191         2
     190         1
     189         2
     188         1
     187         2
     186         1
     185         2
     184         5
     183         1
     182         1
     181         3
     180         2
     179         2
     178         1
     176         1
     175         2
     174         5
     173         1
     172         3
     171         1
     170         4
     169         2
     168         1
     167         5
     165         2
     164         2
     163         3
     162         2
     160         2
     159         2
     158         2
     157         4
     156         3
     155         2
     154         1
     153         3
     152         2
     151         2
     150         2